NAME : random133.869.tour
COMMENT : Length = 869
COMMENT : Found by LKH [Keld Helsgaun] Sat Nov 23 16:03:49 2024
TYPE : TOUR
DIMENSION : 133
TOUR_SECTION
1
34
12
31
112
78
24
113
93
40
91
22
71
114
2
4
100
35
75
116
120
9
57
36
29
103
59
18
72
132
39
80
129
74
84
88
69
38
16
108
13
6
119
77
7
54
87
19
23
3
98
65
107
85
5
97
27
15
99
8
105
51
123
96
56
73
55
37
92
14
30
122
58
82
52
90
79
131
20
63
47
53
127
117
128
133
118
33
104
126
110
41
64
45
62
115
11
10
67
125
26
49
25
111
28
66
21
101
32
46
121
76
130
61
60
83
86
109
68
70
106
17
81
50
94
42
89
44
48
95
43
124
102
-1
EOF
